(set-logic QF_UF)
(declare-fun A0 () Bool)
(declare-fun A1 () Bool)
(declare-fun A2 () Bool)
(declare-fun A3 () Bool)
(declare-fun A4 () Bool)
(declare-fun A5 () Bool)
(declare-fun A6 () Bool)
(declare-fun A8 () Bool)
(declare-fun A9 () Bool)
(declare-fun A10 () Bool)
(declare-fun A11 () Bool)
(declare-fun A12 () Bool)
(declare-fun A13 () Bool)
(declare-fun A14 () Bool)
(declare-fun A15 () Bool)
(declare-fun A16 () Bool)
(declare-fun A17 () Bool)
(declare-fun A18 () Bool)
(declare-fun A19 () Bool)
(declare-fun A20 () Bool)
(declare-fun A22 () Bool)
(declare-fun A23 () Bool)
(declare-fun A24 () Bool)
(declare-fun A25 () Bool)
(declare-fun A26 () Bool)
(assert (let ((.def_0 (and A25 A22))) (let ((.def_1 (= A20 A18))) (let ((.def_2 (not .def_1))) (let ((.def_3 (and .def_2 .def_0))) (let ((.def_4 (not .def_3))) (let ((.def_5 (not A22))) (let ((.def_6 (and A3 .def_5))) (let ((.def_7 (not A2))) (let ((.def_8 (not A15))) (let ((.def_9 (or .def_8 .def_7))) (let ((.def_10 (and .def_9 .def_6))) (let ((.def_11 (or .def_10 .def_4))) (let ((.def_12 (not .def_11))) (let ((.def_13 (and A25 A4))) (let ((.def_14 (not .def_13))) (let ((.def_15 (not A0))) (let ((.def_16 (not A11))) (let ((.def_17 (and .def_16 .def_15))) (let ((.def_18 (not .def_17))) (let ((.def_19 (or .def_18 .def_14))) (let ((.def_20 (not A6))) (let ((.def_21 (= .def_20 A0))) (let ((.def_22 (not .def_21))) (let ((.def_23 (not A19))) (let ((.def_24 (or A26 .def_23))) (let ((.def_25 (not .def_24))) (let ((.def_26 (or .def_25 .def_22))) (let ((.def_27 (not .def_26))) (let ((.def_28 (and .def_27 .def_19))) (let ((.def_29 (not .def_28))) (let ((.def_30 (or .def_29 .def_12))) (let ((.def_31 (not .def_30))) (let ((.def_32 (or A16 A2))) (let ((.def_33 (not .def_32))) (let ((.def_34 (not A12))) (let ((.def_35 (not A16))) (let ((.def_36 (= .def_35 .def_34))) (let ((.def_37 (not .def_36))) (let ((.def_38 (or .def_37 .def_33))) (let ((.def_39 (and A18 A1))) (let ((.def_40 (not .def_39))) (let ((.def_41 (not A26))) (let ((.def_42 (and .def_41 A25))) (let ((.def_43 (not .def_42))) (let ((.def_44 (= .def_43 .def_40))) (let ((.def_45 (not .def_44))) (let ((.def_46 (and .def_45 .def_38))) (let ((.def_47 (not .def_46))) (let ((.def_48 (not A9))) (let ((.def_49 (and .def_15 .def_48))) (let ((.def_50 (and A23 A9))) (let ((.def_51 (not .def_50))) (let ((.def_52 (or .def_51 .def_49))) (let ((.def_53 (and A17 A15))) (let ((.def_54 (not A23))) (let ((.def_55 (and .def_20 .def_54))) (let ((.def_56 (and .def_55 .def_53))) (let ((.def_57 (not .def_56))) (let ((.def_58 (= .def_57 .def_52))) (let ((.def_59 (or .def_58 .def_47))) (let ((.def_60 (or .def_59 .def_31))) (let ((.def_61 (not .def_60))) (let ((.def_62 (= A11 A17))) (let ((.def_63 (not A20))) (let ((.def_64 (and A15 .def_63))) (let ((.def_65 (not .def_64))) (let ((.def_66 (and .def_65 .def_62))) (let ((.def_67 (not .def_66))) (let ((.def_68 (and .def_63 A17))) (let ((.def_69 (and A24 A16))) (let ((.def_70 (and .def_69 .def_68))) (let ((.def_71 (not .def_70))) (let ((.def_72 (and .def_71 .def_67))) (let ((.def_73 (not A25))) (let ((.def_74 (or .def_73 A13))) (let ((.def_75 (not .def_74))) (let ((.def_76 (not A10))) (let ((.def_77 (not A1))) (let ((.def_78 (= .def_77 .def_76))) (let ((.def_79 (not .def_78))) (let ((.def_80 (= .def_79 .def_75))) (let ((.def_81 (not .def_80))) (let ((.def_82 (and .def_35 .def_34))) (let ((.def_83 (not A24))) (let ((.def_84 (and A19 .def_83))) (let ((.def_85 (and .def_84 .def_82))) (let ((.def_86 (not .def_85))) (let ((.def_87 (or .def_86 .def_81))) (let ((.def_88 (or .def_87 .def_72))) (let ((.def_89 (not A18))) (let ((.def_90 (not A8))) (let ((.def_91 (or .def_90 .def_89))) (let ((.def_92 (not .def_91))) (let ((.def_93 (and A15 .def_73))) (let ((.def_94 (or .def_93 .def_92))) (let ((.def_95 (not .def_94))) (let ((.def_96 (and A14 .def_34))) (let ((.def_97 (= A5 .def_15))) (let ((.def_98 (not .def_97))) (let ((.def_99 (or .def_98 .def_96))) (let ((.def_100 (or .def_99 .def_95))) (let ((.def_101 (not A3))) (let ((.def_102 (not A17))) (let ((.def_103 (or .def_102 .def_101))) (let ((.def_104 (not .def_103))) (let ((.def_105 (= .def_7 A6))) (let ((.def_106 (and .def_105 .def_104))) (let ((.def_107 (and A8 .def_83))) (let ((.def_108 (and .def_16 .def_41))) (let ((.def_109 (not .def_108))) (let ((.def_110 (and .def_109 .def_107))) (let ((.def_111 (not .def_110))) (let ((.def_112 (and .def_111 .def_106))) (let ((.def_113 (not .def_112))) (let ((.def_114 (and .def_113 .def_100))) (let ((.def_115 (not .def_114))) (let ((.def_116 (and .def_115 .def_88))) (let ((.def_117 (not .def_116))) (let ((.def_118 (and .def_117 .def_61))) (let ((.def_119 (not .def_118))) .def_119)))))))))))))))))))))))))))))))))))))))))))))))))))))))))))))))))))))))))))))))))))))))))))))))))))))))))))))))))))))))))
(check-sat)
